 $contrl  nprint=5  $end  
 $basis gbasis=sto ngauss=3  $end 
 $data 
4 He atoms 
c1 
  he  2   0.0   0.0   0.0   
  he  2   0.05  0.0   1.0   
  he  2   0.1   1.0   0.0   
  he  2   1.0   0.2   0.0   
 $end 

