 $contrl  nprint=5  $end  
 $basis gbasis=sto ngauss=3  $end 
 $data 
8 He atoms 
c1 
  he  2   0.0000      0.0000      0.0000
  he  2   0.0000      0.0000      1.4000
  he  2   0.0000      1.4000      0.0000
  he  2   0.0000      1.4000      1.4000
  he  2   1.4000      0.0000      0.0000
  he  2   1.4000      0.0000      1.4000
  he  2   1.4000      1.4000      0.0000
  he  2   1.4000      1.4000      1.4000
 $end 

